p cnf 12 50 
-9 4 -12 0
-10 -12 -11 0
-4 -3 -2 0
-2 -6 -9 0
11 -8 -2 0
9 3 7 0
-11 3 -2 0
5 -3 -4 0
-6 5 7 0
5 6 -12 0
5 -1 4 0
-1 -12 2 0
2 -9 -10 0
10 -4 3 0
-3 -10 -7 0
-7 -10 -5 0
-3 -4 -2 0
-5 -9 8 0
4 -11 1 0
8 7 -6 0
-11 -5 1 0
3 -7 4 0
6 -1 -9 0
7 -12 -4 0
4 9 3 0
6 -12 -7 0
2 -7 4 0
-1 -5 9 0
-1 6 8 0
5 3 -1 0
10 -5 1 0
-11 -8 9 0
-3 -1 4 0
3 -6 4 0
7 4 -6 0
12 8 -3 0
-1 -4 7 0
7 6 -8 0
-6 8 -3 0
-7 12 -9 0
-6 -11 8 0
-9 -10 -3 0
3 9 11 0
9 10 8 0
-7 -9 3 0
10 6 -7 0
-3 2 12 0
-8 9 7 0
9 -5 7 0
8 -2 12 0
